(set-logic QF_S)
(declare-fun var_0xINPUT_146117 () String)
(assert (and (= (len var_0xINPUT_146117) 0) (= (len var_0xINPUT_146117) 0) (not (= var_0xINPUT_146117 "L2e4ETpOua"))))
(check-sat var_0xINPUT_146117)